int NumberPatients = 101
int NumberOfRooms = 6
int NumberSurgeons = 23
int NumberOfDays = 6
Duration = [72,244,210,166,67,208,238,66,32,53,101,131,201,119,107,72,201,32,85,317,157,53,41,132,119,98,32,244,47,98,60,66,103,132,238,33,66,119,93,90,60,46,119,50,47,74,98,201,94,101,103,44,72,32,32,47,47,47,64,198,119,98,32,272,105,119,101,238,47,58,85,32,68,98,98,103,47,132,238,103,60,66,74,93,60,46,131,46,38,117,105,32,47,103,66,103,32,32,210,114,32];
Priority = [0,0,0,0,0,0,0,0,0,0,0,0,0,0,0,0,0,0,0,0,0,0,0,0,0,0,0,0,0,0,0,0,0,0,0,0,0,0,0,0,0,0,0,0,0,0,0,0,0,0,0,0,0,0,0,0,0,0,0,0,0,0,0,0,0,0,0,0,0,0,0,1,0,0,0,0,0,0,0,0,0,1,0,0,0,0,0,0,0,0,0,0,1,0,0,0,0,0,0,0,0];
Waiting = [95,193,59,190,158,185,31,288,36,172,324,24,170,24,50,116,200,148,63,44,190,178,120,67,225,63,106,78,462,39,228,106,242,70,57,25,389,148,190,354,361,155,78,77,128,480,354,366,366,198,317,59,135,37,464,319,64,107,73,39,21,80,37,46,52,24,24,95,275,95,172,25,73,32,177,211,59,375,116,95,155,205,73,196,46,30,24,141,35,77,199,534,45,113,50,366,32,45,39,25,207];
Surgeon = [5,3,7,6,9,3,4,3,3,13,1,10,3,5,6,2,6,3,4,5,4,3,7,1,3,13,3,4,5,6,16,1,1,4,10,10,3,8,13,3,2,3,4,1,3,2,7,6,5,5,5,5,9,3,4,7,1,2,2,2,4,5,3,9,4,2,2,7,2,1,3,15,1,5,5,1,15,8,7,5,9,3,2,6,1,5,2,4,1,4,5,3,7,8,5,10,2,6,8,5,5];
BlockAvailability = [[[0,0],[0,1],[1,0],[1,0],[0,0],[0,0]],[[0,0],[0,0],[0,0],[0,0],[1,0],[0,1]],[[0,0],[0,0],[1,1],[0,0],[0,0],[1,0]],[[1,0],[0,1],[0,1],[0,1],[0,1],[0,0]],[[1,1],[0,0],[0,0],[1,0],[0,0],[0,0]],[[0,0],[0,0],[0,0],[0,0],[0,0],[0,0]]];
SurgeonAvailability = [[[1,0],[1,1],[1,1],[0,0],[1,0],[1,1]],[[0,1],[1,1],[0,1],[1,1],[1,1],[1,1]],[[1,1],[0,1],[1,1],[0,1],[1,0],[0,1]],[[0,0],[1,1],[1,1],[0,1],[1,0],[1,1]],[[1,1],[1,1],[1,1],[0,1],[0,1],[1,1]],[[1,1],[0,1],[0,1],[1,1],[1,1],[1,1]],[[1,1],[0,1],[1,0],[1,1],[1,1],[1,1]],[[1,1],[1,0],[0,1],[1,1],[0,0],[1,0]],[[1,1],[0,1],[1,1],[1,1],[1,0],[1,0]],[[1,1],[1,1],[0,1],[1,1],[1,1],[0,1]],[[1,1],[0,0],[1,1],[0,0],[1,1],[1,1]],[[0,1],[1,0],[1,1],[1,1],[1,1],[1,1]],[[1,1],[0,1],[1,1],[1,1],[0,0],[0,1]],[[1,0],[0,1],[1,1],[1,1],[0,1],[0,1]],[[1,1],[1,0],[1,1],[1,1],[1,1],[1,1]],[[0,1],[0,1],[0,1],[1,0],[1,1],[1,1]],[[1,1],[0,1],[1,0],[0,0],[1,1],[0,1]],[[1,1],[1,1],[1,1],[1,1],[0,0],[0,0]],[[1,1],[1,1],[1,0],[1,1],[1,1],[1,1]],[[1,1],[0,1],[0,1],[1,0],[1,1],[1,0]],[[1,0],[1,1],[1,1],[0,1],[0,1],[1,1]],[[1,1],[1,1],[1,1],[0,0],[1,1],[1,1]],[[1,1],[1,0],[0,0],[0,1],[0,1],[0,0]]];
